ssat_solver_solve2
#level: 2
Abc_NtkNodeNum(s->pNtk): 1585  , BDD limit: 10240
level 1: 15 element
Exist
existence_eliminate_scope
Abc_NtkIsBddLogic(pNtk): 0
Abc_NtkIsStrash(pNtk): 1
existence_eliminate_scope_aig
exist by BDD failed
Abc_NtkNodeNum(s->pNtk): 766129  , BDD limit: 919354
Build BDD success
level 0: 15 element
Random
c ssat solving in ABC
#var: 30
s SATISFIABLE
  > Upper bound = 1.000000e+00
  > Lower bound = 1.000000e+00
FINISHED CPU 28.96 MEM 202108 MAXMEM 202108 STALE 0 MAXMEM_RSS 156768
<time name="ALL">29040</time>
real 29.10
user 33.80
sys 12.74
